(set-info :smt-lib-version 2.6)
(set-logic QF_LIA)
(set-info :category "industrial")
(set-info :status sat)
(declare-fun x0 () Int)
(declare-fun x1 () Int)
(declare-fun x10 () Int)
(declare-fun x11 () Int)
(declare-fun x12 () Int)
(declare-fun x13 () Int)
(declare-fun x14 () Int)
(declare-fun x2 () Int)
(declare-fun x3 () Int)
(declare-fun x4 () Int)
(declare-fun x5 () Int)
(declare-fun x6 () Int)
(declare-fun x7 () Int)
(declare-fun x8 () Int)
(declare-fun x9 () Int)
(assert (let ((?v_3 (* 0 x11)) (?v_22 (* 1 x10)) (?v_8 (* 0 x14)) (?v_0 (* 0 x2)) (?v_18 (* 0 x6)) (?v_1 (* 0 x8)) (?v_6 (* 0 x0)) (?v_2 (* 0 x10)) (?v_4 (* 1 x13)) (?v_41 (* 1 x5)) (?v_42 (* 1 x7))) (let ((?v_44 (+ ?v_41 ?v_42)) (?v_11 (* 1 x0)) (?v_9 (* 1 x4)) (?v_49 (* 1 x14)) (?v_26 (* 0 x4)) (?v_25 (* 0 x3)) (?v_15 (* 1 x8)) (?v_12 (* 1 x11)) (?v_13 (* 0 x13)) (?v_14 (* 1 x3)) (?v_19 (* 0 x9)) (?v_21 (* 0 x5)) (?v_38 (* 2 x10)) (?v_29 (* 0 x12)) (?v_33 (* 1 x12)) (?v_52 (* 2 x6)) (?v_34 (* 0 x7)) (?v_36 (* 0 x1)) (?v_30 (* 1 x2)) (?v_48 (* 2 x1)) (?v_39 (+ ?v_1 (* 1 x9))) (?v_45 (* 1 x6)) (?v_43 (* 1 x1))) (let ((?v_47 (+ ?v_21 (+ ?v_18 ?v_42))) (?v_51 (+ ?v_19 ?v_49)) (?v_17 (* (- 1) x13)) (?v_20 (* (- 1) x3)) (?v_7 (* (- 1) x1)) (?v_5 (* (- 1) x9)) (?v_10 (* (- 2) x10)) (?v_37 (* (- 1) x0)) (?v_16 (* (- 1) x8)) (?v_32 (* (- 1) x10)) (?v_23 (* (- 1) x12)) (?v_24 (* (- 1) x14)) (?v_40 (* (- 1) x2)) (?v_28 (* (- 1) x4)) (?v_27 (* (- 1) x7)) (?v_31 (* (- 1) x5)) (?v_35 (* (- 1) x6)) (?v_46 (* (- 2) x4)) (?v_50 (* (- 1) x11))) (and (<= (+ ?v_3 (+ ?v_22 (+ ?v_17 (+ ?v_20 (+ (* (- 2) x5) (+ ?v_8 (+ ?v_0 (+ ?v_18 ?v_1)))))))) 0) (<= (+ (* (- 2) x11) (+ ?v_6 (+ ?v_7 (+ ?v_2 (+ ?v_0 (+ ?v_4 (+ (* (- 2) x6) (+ ?v_1 (+ ?v_5 ?v_44))))))))) 0) (<= (+ ?v_11 (+ (* (- 2) x1) (+ ?v_2 (+ ?v_0 (+ ?v_9 (+ (* (- 2) x7) ?v_49)))))) 1) (<= (+ ?v_10 (+ (* (- 2) x3) (+ ?v_37 (+ ?v_3 (+ ?v_16 (+ ?v_0 (+ ?v_26 (+ ?v_4 ?v_5)))))))) (- 1)) (<= (+ ?v_6 (+ ?v_7 (+ (* 2 x11) (+ ?v_5 (+ ?v_8 (+ ?v_0 (+ ?v_25 ?v_15))))))) 1) (<= (+ ?v_6 (+ ?v_7 (+ ?v_32 (+ ?v_12 (+ ?v_23 (+ ?v_13 (+ ?v_8 (+ ?v_0 (+ ?v_14 (+ ?v_9 ?v_19)))))))))) (- 1)) (<= (+ ?v_10 (+ ?v_11 (+ ?v_7 (+ ?v_12 (+ ?v_13 (+ ?v_0 (+ ?v_14 (+ ?v_21 ?v_15)))))))) 0) (<= (+ (* (- 2) x2) (+ ?v_7 (+ ?v_3 (+ ?v_16 (+ ?v_38 (+ ?v_29 (+ ?v_17 (+ ?v_14 (+ ?v_18 ?v_19))))))))) 0) (<= (+ ?v_6 (+ ?v_2 (+ ?v_33 (+ ?v_24 (+ ?v_40 (+ ?v_20 (+ ?v_28 (+ ?v_27 (+ ?v_5 (+ ?v_21 ?v_52)))))))))) 1) (<= (+ ?v_3 (+ ?v_22 (+ ?v_23 (+ ?v_13 (+ ?v_24 (+ ?v_0 (+ ?v_25 (+ ?v_5 (+ ?v_18 (+ ?v_34 ?v_15)))))))))) 0) (<= (+ ?v_23 (+ ?v_6 (+ ?v_36 (+ ?v_13 (+ ?v_24 (+ ?v_0 (+ ?v_25 (+ ?v_31 (+ ?v_35 (* 2 x9)))))))))) 0) (<= (+ (* (- 2) x9) (+ ?v_6 (+ ?v_13 (+ ?v_26 (+ ?v_30 (+ ?v_15 (+ ?v_48 (+ ?v_24 (+ ?v_27 ?v_21))))))))) 1) (<= (+ ?v_3 (+ ?v_20 (+ ?v_28 (+ ?v_6 (+ ?v_29 (+ ?v_13 (+ ?v_30 (+ ?v_31 (+ ?v_8 ?v_19))))))))) 1) (<= (+ ?v_32 (+ ?v_3 (+ ?v_46 (+ ?v_33 (+ ?v_4 (+ ?v_31 (+ ?v_8 (+ ?v_0 (+ ?v_14 ?v_39))))))))) 0) (<= (+ ?v_7 (+ ?v_32 (+ ?v_29 (+ ?v_17 (+ ?v_31 (+ ?v_8 (+ ?v_25 (+ ?v_34 ?v_45)))))))) (- 1)) (<= (+ ?v_6 (+ ?v_7 (+ ?v_16 (+ ?v_2 (+ ?v_12 (+ ?v_29 (+ ?v_0 (+ ?v_25 (+ ?v_9 (+ ?v_35 ?v_8)))))))))) 0) (<= (+ ?v_28 (+ ?v_6 (+ ?v_36 (+ ?v_2 (+ ?v_3 (+ ?v_33 (+ ?v_35 (+ ?v_16 ?v_8)))))))) 0) (<= (+ ?v_37 (+ ?v_28 (+ ?v_36 (+ ?v_38 (+ ?v_29 (+ ?v_4 (+ ?v_27 (+ ?v_8 ?v_39)))))))) (- 1)) (<= (+ ?v_37 (+ ?v_32 (+ ?v_50 (+ ?v_20 (+ ?v_5 (+ ?v_36 (+ ?v_26 (+ ?v_30 (* 2 x14))))))))) (- 1)) (<= (+ ?v_32 (+ ?v_40 (+ ?v_16 (+ ?v_5 (+ ?v_6 (+ ?v_8 (+ ?v_25 (+ ?v_26 ?v_41)))))))) 0) (<= (+ ?v_2 (+ ?v_40 (+ ?v_16 (+ ?v_29 (+ ?v_25 (+ ?v_4 (+ ?v_8 (+ ?v_21 ?v_42)))))))) (- 1)) (<= (+ ?v_20 (+ ?v_5 (+ ?v_6 (+ ?v_26 (+ ?v_43 (+ ?v_4 (+ ?v_8 (+ ?v_30 ?v_47)))))))) 0) (<= (+ ?v_2 (+ ?v_12 (+ ?v_29 (+ ?v_43 (+ ?v_4 (+ ?v_35 (+ ?v_8 (+ ?v_19 ?v_44)))))))) 1) (<= (+ ?v_6 (+ ?v_12 (+ ?v_29 (+ ?v_13 (+ ?v_25 (+ ?v_26 (+ ?v_21 (+ ?v_19 ?v_45)))))))) 1) (<= (+ ?v_46 (+ ?v_40 (+ ?v_6 (+ ?v_36 (+ ?v_13 (+ ?v_25 ?v_47)))))) 0) (<= (+ ?v_37 (+ ?v_40 (+ ?v_1 (+ ?v_33 (+ ?v_13 (+ ?v_9 (+ ?v_48 (+ ?v_21 (+ ?v_34 ?v_51))))))))) (- 1)) (<= (+ ?v_32 (+ ?v_50 (+ ?v_40 (+ ?v_16 (+ ?v_6 (+ ?v_43 (+ ?v_27 (+ ?v_21 ?v_51)))))))) 0) (<= (+ ?v_32 (+ ?v_17 (+ ?v_40 (+ ?v_19 (+ ?v_11 (+ ?v_43 (+ ?v_49 ?v_15))))))) 0) (<= (+ ?v_37 (+ ?v_50 (+ ?v_28 (+ ?v_16 (+ ?v_0 (+ ?v_19 (+ ?v_43 ?v_35))))))) 0) (<= (+ ?v_25 (+ ?v_1 (+ ?v_43 (+ ?v_33 (+ ?v_4 (+ ?v_27 (+ ?v_41 ?v_52))))))) 0))))))
(check-sat)
(exit)
